(set-info :origin "SVCOMP13 benchmarks generated by Arie Gurfinkel")
(set-info :status unsat)
(set-logic HORN)
(declare-fun cp-rel-bb1.i.i23.i.i () Bool)
(declare-fun cp-rel-entry () Bool)
(declare-fun cp-rel-bb1.i.i (Real Real Real) Bool)
(assert |cp-rel-entry|)
(assert (forall ((?A Real) (?B Real) (?C Real) (?D Bool) )(let (($x523329 (and |cp-rel-entry| (<= ?C 0.0) (>= ?B 1.0) (<= ?B 1.0) (>= ?A 0.0) (<= ?A 0.0) (= ?D true) (>= ?C 0.0))))
(=> $x523329 (|cp-rel-bb1.i.i| ?A ?B ?C))))
)
(assert (forall ((?A Real) (?B Real) (?C Real) (?D Real) (?E Real) (?F Real) (?G Bool) (?H Bool) (?I Bool) (?J Bool) (?K Bool) (?L Bool) (?M Real) (?N Real) (?O Bool) (?P Bool) (?Q Bool) (?R Bool) (?S Bool) (?T Bool) (?U Real) (?V Real) (?W Bool) (?X Bool) (?Y Bool) (?Z Bool) (?A1 Bool) (?B1 Bool) (?C1 Bool) (?D1 Bool) (?E1 Bool) (?F1 Bool) (?G1 Bool) (?H1 Real) (?I1 Real) (?J1 Real) (?K1 Bool) (?L1 Real) (?M1 Bool) (?N1 Bool) (?O1 Real) (?P1 Bool) (?Q1 Real) (?R1 Real) (?S1 Bool) (?T1 Bool) (?U1 Bool) (?V1 Real) (?W1 Bool) (?X1 Bool) )(let (($x42931 (|cp-rel-bb1.i.i| ?D ?E ?F)))
(let (($x610325 (= ?N1 (or ?X1 ?W1))))
(let (($x286352 (or (not ?G) (and ?H ?I (not ?J)))))
(let (($x27918 (or (not ?G) ?I)))
(let (($x456088 (not ?K)))
(let (($x622578 (or $x456088 (and ?G ?L (<= ?M ?N) (>= ?M ?N)) (and ?H ?O ?J (<= ?M ?B) (>= ?M ?B)))))
(let (($x480875 (or $x456088 (and ?L (not ?O)) (and ?O (not ?L)))))
(let (($x536925 (or (not ?P) (and ?K ?Q (not ?R)))))
(let (($x364524 (or (not ?P) ?Q)))
(let (($x407345 (not ?S)))
(let (($x251034 (or $x407345 (and ?P ?T (<= ?U ?V) (>= ?U ?V)) (and ?K ?W ?R (<= ?U ?A) (>= ?U ?A)))))
(let (($x335068 (or $x407345 (and ?T (not ?W)) (and ?W (not ?T)))))
(let (($x820023 (or (not ?X) (and ?S ?Y ?Z))))
(let (($x83568 (or (not ?X) ?Y)))
(let (($x566093 (or (not ?A1) (and ?S ?B1 (not ?Z)))))
(let (($x476818 (or (not ?A1) ?B1)))
(let (($x376803 (or (not ?C1) (and ?A1 ?D1 ?E1))))
(let (($x228707 (or (not ?C1) ?D1)))
(let (($x876169 (>= ?H1 ?L1)))
(let (($x530830 (<= ?H1 ?L1)))
(let (($x302478 (and ?A1 ?M1 (not ?E1) $x530830 $x876169 (<= ?I1 0.0) (>= ?I1 0.0))))
(let (($x850920 (and ?X ?G1 (<= ?H1 ?M) (>= ?H1 ?M) (<= ?I1 ?J1) (>= ?I1 ?J1))))
(let (($x556361 (not ?F1)))
(let (($x403486 (or $x556361 $x850920 (and ?C1 ?K1 $x530830 $x876169 (<= ?I1 ?C) (>= ?I1 ?C)) $x302478)))
(let (($x519970 (or $x556361 (and ?G1 (not ?K1) (not ?M1)) (and ?K1 (not ?G1) (not ?M1)) (and ?M1 (not ?G1) (not ?K1)))))
(let (($x77781 (= ?F1 true)))
(let (($x404382 (= ?N1 true)))
(let (($x82122 (= ?J (= ?O1 0.0))))
(let (($x88284 (= ?Q1 (ite ?P1 1.0 0.0))))
(let (($x525845 (= ?R (= ?R1 0.0))))
(let (($x688006 (= ?V (ite ?S1 1.0 0.0))))
(let (($x510111 (= ?T1 (not (<= ?M 1.0)))))
(let (($x348249 (= ?U1 (not (<= ?M 0.0)))))
(let (($x422068 (= ?V1 (+ (~ 1.0) ?M))))
(let (($x6539 (= ?L1 (ite ?U1 ?V1 ?M))))
(let (($x396872 (= ?E1 (= ?U 0.0))))
(let (($x479543 (= ?W1 (= ?U 0.0))))
(let (($x289391 (= ?X1 (= ?I1 0.0))))
(let (($x855196 (and (|cp-rel-bb1.i.i| ?A ?B ?C) $x289391 $x479543 $x396872 $x6539 $x422068 $x348249 (= ?J1 (ite ?T1 1.0 ?C)) $x510111 (= ?Z (= ?C 0.0)) $x688006 (= ?S1 (= ?A 0.0)) $x525845 (= ?N (+ ?Q1 ?B)) $x88284 (= ?P1 (not (<= 2.0 ?B))) $x82122 (>= ?F ?I1) (<= ?F ?I1) (>= ?E ?H1) (<= ?E ?H1) (>= ?D ?U) (<= ?D ?U) $x404382 $x77781 $x519970 $x403486 $x228707 $x376803 $x476818 $x566093 $x83568 $x820023 $x335068 $x251034 $x364524 $x536925 $x480875 $x622578 $x27918 $x286352 $x610325)))
(=> $x855196 $x42931)))))))))))))))))))))))))))))))))))))))))
)
(assert (forall ((?A Real) (?B Real) (?C Real) (?D Bool) (?E Bool) (?F Bool) (?G Bool) (?H Bool) (?I Bool) (?J Real) (?K Real) (?L Bool) (?M Bool) (?N Bool) (?O Bool) (?P Bool) (?Q Bool) (?R Real) (?S Real) (?T Bool) (?U Bool) (?V Bool) (?W Bool) (?X Bool) (?Y Bool) (?Z Bool) (?A1 Bool) (?B1 Bool) (?C1 Bool) (?D1 Bool) (?E1 Real) (?F1 Real) (?G1 Real) (?H1 Bool) (?I1 Real) (?J1 Bool) (?K1 Bool) (?L1 Real) (?M1 Bool) (?N1 Real) (?O1 Real) (?P1 Bool) (?Q1 Bool) (?R1 Bool) (?S1 Real) (?T1 Bool) (?U1 Bool) )(let (($x610325 (= ?K1 (or ?U1 ?T1))))
(let (($x286352 (or (not ?D) (and ?E ?F (not ?G)))))
(let (($x27918 (or (not ?D) ?F)))
(let (($x456088 (not ?H)))
(let (($x214609 (or $x456088 (and ?D ?I (<= ?J ?K) (>= ?J ?K)) (and ?E ?L ?G (<= ?J ?B) (>= ?J ?B)))))
(let (($x480875 (or $x456088 (and ?I (not ?L)) (and ?L (not ?I)))))
(let (($x536925 (or (not ?M) (and ?H ?N (not ?O)))))
(let (($x364524 (or (not ?M) ?N)))
(let (($x407345 (not ?P)))
(let (($x299492 (or $x407345 (and ?M ?Q (<= ?R ?S) (>= ?R ?S)) (and ?H ?T ?O (<= ?R ?A) (>= ?R ?A)))))
(let (($x335068 (or $x407345 (and ?Q (not ?T)) (and ?T (not ?Q)))))
(let (($x820023 (or (not ?U) (and ?P ?V ?W))))
(let (($x83568 (or (not ?U) ?V)))
(let (($x566093 (or (not ?X) (and ?P ?Y (not ?W)))))
(let (($x476818 (or (not ?X) ?Y)))
(let (($x376803 (or (not ?Z) (and ?X ?A1 ?B1))))
(let (($x228707 (or (not ?Z) ?A1)))
(let (($x876169 (>= ?E1 ?I1)))
(let (($x530830 (<= ?E1 ?I1)))
(let (($x302478 (and ?X ?J1 (not ?B1) $x530830 $x876169 (<= ?F1 0.0) (>= ?F1 0.0))))
(let (($x850920 (and ?U ?D1 (<= ?E1 ?J) (>= ?E1 ?J) (<= ?F1 ?G1) (>= ?F1 ?G1))))
(let (($x556361 (not ?C1)))
(let (($x838963 (or $x556361 $x850920 (and ?Z ?H1 $x530830 $x876169 (<= ?F1 ?C) (>= ?F1 ?C)) $x302478)))
(let (($x519970 (or $x556361 (and ?D1 (not ?H1) (not ?J1)) (and ?H1 (not ?D1) (not ?J1)) (and ?J1 (not ?D1) (not ?H1)))))
(let (($x77781 (= ?C1 true)))
(let (($x82122 (= ?G (= ?L1 0.0))))
(let (($x88284 (= ?N1 (ite ?M1 1.0 0.0))))
(let (($x525845 (= ?O (= ?O1 0.0))))
(let (($x688006 (= ?S (ite ?P1 1.0 0.0))))
(let (($x510111 (= ?Q1 (not (<= ?J 1.0)))))
(let (($x348249 (= ?R1 (not (<= ?J 0.0)))))
(let (($x422068 (= ?S1 (+ (~ 1.0) ?J))))
(let (($x6539 (= ?I1 (ite ?R1 ?S1 ?J))))
(let (($x396872 (= ?B1 (= ?R 0.0))))
(let (($x479543 (= ?T1 (= ?R 0.0))))
(let (($x289391 (= ?U1 (= ?F1 0.0))))
(let (($x42931 (|cp-rel-bb1.i.i| ?A ?B ?C)))
(let (($x303830 (and $x42931 $x289391 $x479543 $x396872 $x6539 $x422068 $x348249 (= ?G1 (ite ?Q1 1.0 ?C)) $x510111 (= ?W (= ?C 0.0)) $x688006 (= ?P1 (= ?A 0.0)) $x525845 (= ?K (+ ?N1 ?B)) $x88284 (= ?M1 (not (<= 2.0 ?B))) $x82122 (not (= ?K1 true)) $x77781 $x519970 $x838963 $x228707 $x376803 $x476818 $x566093 $x83568 $x820023 $x335068 $x299492 $x364524 $x536925 $x480875 $x214609 $x27918 $x286352 $x610325)))
(=> $x303830 |cp-rel-bb1.i.i23.i.i|))))))))))))))))))))))))))))))))))))))))
)
(assert (not cp-rel-bb1.i.i23.i.i))
(check-sat)
